p cnf 15 34
-1 -2 15 0 
-3 15 0 
-4 -5 15 0 
-6 15 0 
-7 -1 15 0 
-8 -9 15 0 
-8 15 0 
-10 -6 15 0 
-3 -11 15 0 
-6 -4 15 0 
-5 -9 15 0 
-10 -2 15 0 
-6 -11 15 0 
-12 -5 15 0 
-1 -11 15 0 
-10 -11 15 0 
-6 -2 15 0 
-1 -7 15 0 
-6 -1 15 0 
-7 -9 15 0 
-1 15 0 
-4 15 0 
-5 -11 15 0 
-13 -4 15 0 
-1 -8 15 0 
-14 -8 15 0 
-13 -9 15 0 
-9 15 0 
-11 15 0 
-12 15 0 
-4 -2 15 0 
-11 -8 15 0 
-2 -9 15 0 
-14 -9 15 0 
